problems/csplib-prob056/sonet-models/noch/O0/minion/model_2_1-s1ring09-solution000001.eprime-solution
language ESSENCE' 1.0

letting network_ExplicitWithFlagsR6_Flags be [1, 1, 1, 1; int(1..4)]
letting network_ExplicitWithFlagsR6_Values_ExplicitVarSizeWithDummy be
        [[1, 2, 3, 4; int(1..4)], [1, 3, 7, 8; int(1..4)], [4, 5, 6, 8; int(1..4)], [8, 8, 8, 8; int(1..4)]; int(1..4)]
