problems/csplib-prob056/sonet-models/noch/O0/minion/model_2_1-s1ring09-solution000001.solution
language Essence 1.3

letting network be mset({}, {1, 2, 3, 4}, {1, 3, 7}, {4, 5, 6})
$ Here is a simple "visualisation" for the value above.
$ 
$ 1 2 3 4
$ 1 3 7
$ 4 5 6

